========================================================== 
File name: C:\DEGR\assets\definitions\MSRCPSP_Gen\1000_40_1024_10_B.def
Creation date: Sat May 06 09:23:25 CEST 2023
Website: http://imopse.ii.pwr.edu.pl/ 
Reference: 
Myszkowski P. B., Skowronski M. E., Olech L., Oslizlo K., 
Hybrid Ant Colony Optimization in solving Multi-Skill Resource-Constrained Project Scheduling Problem, 
Soft Computing, DOI: DOI 10.1007/s00500-014-1455-x 
========================================================== 
General characteristics: 
Tasks: 1000
Resources: 40
Precedence relations: 1021
Number of skill types: 10
========================================================== 
ResourceID 	 Salary 	 Skills 
1	 	 	82.2	 	 Q7: 2 	  Q3: 1 	  Q0: 1 	  Q6: 3 	  Q8: 2 	  Q4: 0 	  Q1: 2 	  Q9: 2 	 
2	 	 	57.4	 	 Q8: 0 	  Q2: 1 	  Q9: 2 	  Q7: 1 	  Q4: 0 	 
3	 	 	34.8	 	 Q4: 0 	  Q6: 1 	  Q7: 3 	  Q2: 0 	  Q3: 1 	  Q9: 3 	 
4	 	 	68.3	 	 Q9: 2 	  Q6: 3 	  Q8: 0 	  Q0: 0 	  Q2: 1 	 
5	 	 	55.2	 	 Q3: 2 	  Q2: 0 	  Q0: 3 	  Q1: 2 	  Q4: 1 	  Q9: 0 	  Q7: 2 	  Q6: 0 	 
6	 	 	74.0	 	 Q1: 3 	  Q3: 0 	  Q0: 2 	  Q8: 3 	  Q2: 2 	  Q4: 2 	  Q7: 0 	  Q6: 0 	  Q9: 1 	 
7	 	 	70.0	 	 Q7: 3 	  Q2: 0 	  Q3: 1 	  Q6: 1 	  Q5: 0 	  Q8: 3 	  Q9: 3 	  Q4: 0 	 
8	 	 	84.0	 	 Q5: 0 	 
9	 	 	23.2	 	 Q4: 1 	 
10	 	 	14.6	 	 Q9: 2 	  Q0: 1 	  Q5: 3 	  Q7: 2 	  Q1: 2 	 
11	 	 	71.9	 	 Q0: 1 	  Q4: 3 	  Q3: 2 	 
12	 	 	14.9	 	 Q0: 3 	  Q1: 2 	  Q2: 3 	  Q8: 0 	  Q9: 0 	 
13	 	 	22.9	 	 Q1: 2 	  Q2: 0 	  Q5: 3 	  Q0: 2 	 
14	 	 	91.4	 	 Q1: 1 	  Q9: 3 	  Q2: 3 	 
15	 	 	56.4	 	 Q9: 2 	 
16	 	 	66.8	 	 Q5: 2 	  Q2: 2 	  Q3: 1 	  Q9: 1 	 
17	 	 	15.6	 	 Q8: 3 	  Q1: 0 	  Q3: 3 	  Q4: 0 	  Q2: 1 	 
18	 	 	32.5	 	 Q8: 2 	 
19	 	 	11.3	 	 Q9: 0 	  Q8: 3 	  Q4: 2 	  Q5: 0 	  Q2: 2 	  Q6: 3 	  Q1: 0 	  Q0: 0 	 
20	 	 	75.2	 	 Q7: 1 	  Q2: 1 	  Q6: 1 	  Q3: 3 	  Q1: 0 	  Q4: 0 	  Q9: 0 	  Q5: 2 	  Q8: 1 	 
21	 	 	76.8	 	 Q6: 0 	 
22	 	 	24.5	 	 Q6: 0 	 
23	 	 	51.8	 	 Q3: 2 	 
24	 	 	14.9	 	 Q6: 2 	  Q7: 2 	 
25	 	 	99.3	 	 Q5: 1 	  Q8: 3 	  Q4: 1 	  Q9: 3 	  Q7: 1 	  Q1: 3 	  Q2: 1 	  Q6: 0 	 
26	 	 	87.6	 	 Q9: 2 	  Q2: 0 	  Q4: 0 	  Q0: 2 	  Q7: 1 	  Q5: 0 	  Q8: 2 	  Q3: 1 	 
27	 	 	90.9	 	 Q6: 0 	  Q9: 0 	 
28	 	 	49.9	 	 Q2: 3 	  Q5: 3 	  Q3: 3 	  Q1: 0 	  Q7: 0 	  Q9: 2 	  Q4: 2 	  Q8: 3 	 
29	 	 	25.8	 	 Q9: 2 	  Q2: 0 	  Q4: 2 	  Q7: 0 	  Q0: 2 	  Q8: 3 	  Q6: 1 	 
30	 	 	77.1	 	 Q2: 3 	  Q0: 1 	  Q8: 1 	  Q1: 3 	 
31	 	 	21.2	 	 Q1: 0 	  Q8: 1 	  Q4: 3 	  Q6: 2 	  Q9: 0 	  Q3: 0 	 
32	 	 	45.7	 	 Q6: 1 	  Q3: 1 	  Q1: 3 	 
33	 	 	94.2	 	 Q1: 3 	  Q0: 0 	  Q6: 0 	  Q2: 1 	  Q8: 1 	  Q4: 2 	 
34	 	 	17.5	 	 Q6: 1 	  Q7: 0 	  Q9: 3 	  Q0: 3 	  Q1: 3 	  Q2: 2 	  Q5: 0 	  Q8: 0 	  Q4: 0 	 
35	 	 	83.3	 	 Q1: 0 	 
36	 	 	82.0	 	 Q3: 1 	  Q7: 1 	  Q9: 1 	  Q0: 1 	  Q4: 3 	  Q2: 2 	 
37	 	 	18.1	 	 Q7: 0 	  Q4: 1 	  Q5: 3 	  Q8: 0 	  Q0: 0 	  Q1: 2 	  Q3: 3 	  Q6: 1 	 
38	 	 	86.1	 	 Q8: 3 	  Q1: 1 	  Q4: 3 	  Q0: 2 	 
39	 	 	37.5	 	 Q5: 1 	  Q3: 2 	  Q4: 1 	 
40	 	 	69.5	 	 Q4: 1 	  Q5: 1 	  Q1: 2 	  Q6: 2 	  Q7: 0 	  Q9: 1 	  Q8: 1 	  Q2: 2 	 
========================================================== 
TaskID 	 Duration 	 Skill 	 Predecessor IDs 
1	28	Q7:	0
2	31	Q3:	0
3	39	Q5:	0
4	14	Q3:	1
5	17	Q2:	2
6	19	Q6:	3
7	34	Q1:	0
8	35	Q4:	3
9	25	Q9:	2
10	11	Q4:	0
11	29	Q1:	2
12	23	Q5:	0
13	38	Q7:	2
14	26	Q6:	3
15	32	Q6:	2
16	35	Q3:	0
17	34	Q7:	1
18	30	Q2:	3
19	21	Q9:	1
20	39	Q4:	3
21	16	Q4:	1
22	26	Q9:	2
23	31	Q1:	1
24	17	Q3:	0
25	31	Q2:	0
26	25	Q5:	2
27	40	Q0:	2
28	15	Q6:	2
29	17	Q1:	3	16
30	26	Q8:	1
31	21	Q2:	3	29
32	28	Q6:	1
33	35	Q5:	1
34	20	Q4:	2
35	28	Q3:	3
36	17	Q2:	0
37	29	Q7:	0
38	35	Q7:	2
39	17	Q3:	1
40	27	Q0:	0
41	25	Q7:	0
42	13	Q0:	3
43	39	Q1:	3	26
44	14	Q3:	1
45	21	Q5:	0
46	28	Q2:	1
47	30	Q1:	0
48	15	Q4:	0
49	12	Q3:	1
50	31	Q4:	0
51	24	Q8:	1
52	17	Q6:	2
53	14	Q0:	2
54	23	Q9:	1
55	27	Q4:	3	47
56	40	Q4:	0
57	39	Q3:	2
58	39	Q3:	0
59	13	Q7:	3	54
60	39	Q6:	3
61	14	Q7:	2	54
62	26	Q1:	1	39
63	13	Q8:	0	6
64	15	Q4:	1
65	10	Q5:	1
66	35	Q5:	2
67	28	Q9:	1
68	28	Q8:	1
69	21	Q4:	3
70	13	Q1:	0
71	27	Q3:	2
72	28	Q7:	3
73	38	Q1:	3
74	30	Q5:	2
75	39	Q5:	2
76	33	Q8:	0
77	40	Q0:	2
78	22	Q0:	1	2
79	11	Q7:	2
80	20	Q9:	2	31
81	28	Q1:	3
82	13	Q3:	1
83	36	Q3:	3
84	18	Q0:	1
85	11	Q8:	2	6
86	25	Q2:	3
87	17	Q1:	3
88	30	Q4:	0
89	19	Q4:	0
90	24	Q4:	2	4
91	34	Q6:	1
92	11	Q2:	1	27
93	19	Q2:	2
94	34	Q3:	2
95	23	Q2:	2
96	39	Q9:	0	52
97	10	Q9:	0
98	16	Q6:	3
99	23	Q0:	2
100	13	Q4:	0
101	31	Q8:	1
102	27	Q8:	0
103	27	Q8:	0	2
104	28	Q9:	2
105	33	Q7:	1	24
106	35	Q9:	1	54
107	30	Q5:	1
108	10	Q6:	0
109	31	Q9:	2
110	19	Q0:	1
111	24	Q6:	3
112	37	Q5:	0	11
113	37	Q8:	0
114	34	Q1:	2
115	19	Q1:	3
116	37	Q0:	0
117	38	Q7:	3	22
118	39	Q4:	2
119	11	Q5:	1
120	19	Q4:	0	106
121	18	Q0:	0
122	28	Q1:	0
123	25	Q1:	3
124	37	Q8:	0	42
125	14	Q8:	1	11
126	15	Q2:	0
127	27	Q7:	3
128	30	Q0:	3
129	13	Q8:	0
130	30	Q8:	0	58
131	12	Q1:	0	8
132	33	Q5:	2
133	22	Q5:	0	51
134	33	Q5:	3
135	27	Q2:	3
136	17	Q7:	2	24	64	8
137	11	Q9:	0	36
138	20	Q9:	2
139	16	Q0:	2	28
140	13	Q0:	0
141	31	Q8:	0
142	38	Q8:	2	108
143	11	Q4:	3
144	32	Q6:	1
145	29	Q8:	0
146	21	Q7:	1
147	15	Q1:	3	53
148	11	Q5:	2
149	26	Q5:	0
150	31	Q4:	3	4
151	19	Q5:	1
152	30	Q9:	1	66
153	18	Q9:	0	52	118
154	33	Q0:	0
155	20	Q5:	1
156	27	Q1:	1
157	19	Q2:	2
158	36	Q4:	0
159	17	Q9:	2
160	14	Q2:	0
161	32	Q6:	1	93
162	14	Q5:	1
163	29	Q2:	3
164	39	Q7:	1
165	12	Q1:	1
166	22	Q7:	3
167	11	Q1:	3
168	29	Q5:	1
169	30	Q3:	0
170	19	Q4:	0
171	18	Q7:	3	93
172	23	Q8:	3	41
173	25	Q3:	3	138
174	12	Q8:	2
175	40	Q2:	1
176	26	Q7:	1
177	12	Q5:	3
178	22	Q6:	0	175
179	12	Q5:	0
180	15	Q2:	3
181	26	Q5:	3
182	16	Q8:	2
183	9	Q1:	2
184	25	Q1:	3
185	14	Q4:	2
186	17	Q2:	2	32
187	22	Q3:	0
188	11	Q2:	1
189	35	Q3:	2
190	13	Q3:	3
191	38	Q2:	2
192	38	Q9:	1
193	39	Q5:	2
194	25	Q2:	2	87
195	22	Q4:	3
196	16	Q0:	2	90
197	33	Q8:	3	183
198	19	Q7:	2
199	18	Q2:	0	15
200	34	Q5:	3	129	155
201	28	Q6:	3
202	22	Q8:	1	112	185
203	26	Q6:	3	109
204	35	Q4:	3
205	35	Q1:	1
206	38	Q1:	3
207	18	Q6:	3
208	24	Q2:	3
209	12	Q9:	2
210	17	Q3:	1
211	19	Q7:	1
212	15	Q7:	2
213	22	Q4:	1
214	34	Q2:	1
215	29	Q1:	0	191
216	29	Q0:	2
217	18	Q5:	1	93	190	5	106	204
218	28	Q1:	3
219	21	Q5:	2
220	25	Q4:	1
221	32	Q9:	1
222	32	Q6:	3
223	12	Q1:	3
224	35	Q3:	0	193	181
225	30	Q3:	1	174
226	26	Q7:	3	174
227	10	Q8:	1
228	18	Q3:	2
229	14	Q0:	1
230	30	Q0:	2	85
231	20	Q6:	2	102
232	34	Q5:	2	196
233	28	Q8:	2
234	9	Q4:	3	185	2	31
235	22	Q4:	3	168
236	9	Q6:	3
237	9	Q1:	0
238	15	Q3:	0
239	37	Q6:	0	98
240	14	Q5:	3
241	36	Q2:	2	239	154	49
242	29	Q0:	2
243	35	Q0:	3	192
244	9	Q8:	1	236
245	38	Q2:	2
246	30	Q7:	2
247	23	Q2:	0	205	173
248	39	Q1:	1	144
249	22	Q4:	1	5
250	34	Q4:	2
251	25	Q9:	1	101
252	30	Q7:	1
253	21	Q3:	3	157
254	19	Q8:	3	160	10
255	13	Q6:	0
256	19	Q0:	3
257	33	Q5:	1	244	223
258	31	Q8:	2
259	14	Q6:	2	71
260	34	Q5:	1
261	23	Q6:	3
262	28	Q9:	2	11
263	21	Q8:	0
264	35	Q2:	0	161	47
265	35	Q1:	2
266	36	Q6:	3	210
267	16	Q3:	1	34
268	22	Q8:	0	142
269	21	Q9:	0	13
270	35	Q9:	2
271	12	Q4:	2
272	11	Q6:	2	253
273	29	Q4:	2	196
274	12	Q3:	0
275	15	Q2:	2
276	24	Q2:	1	226	11
277	31	Q4:	0
278	9	Q2:	0
279	31	Q4:	0
280	26	Q6:	2	225
281	23	Q7:	3
282	9	Q1:	0	239
283	32	Q7:	3	196	107
284	9	Q7:	3	52	78
285	14	Q4:	2
286	14	Q1:	2
287	14	Q0:	0
288	36	Q5:	3	3	58
289	21	Q0:	3
290	31	Q4:	0	160
291	37	Q1:	2	32	42
292	15	Q1:	0
293	31	Q1:	0	38	17
294	8	Q9:	2	100	33
295	16	Q8:	3
296	30	Q4:	3	294
297	9	Q1:	1
298	38	Q4:	0	218
299	22	Q9:	3	16
300	40	Q1:	3
301	25	Q9:	2	164
302	39	Q5:	3	64	90	55
303	36	Q6:	1
304	32	Q8:	3
305	12	Q3:	0
306	11	Q9:	3	174
307	15	Q9:	3
308	15	Q2:	2	199
309	12	Q3:	2	163
310	28	Q4:	0
311	20	Q1:	0	253
312	25	Q0:	3	170
313	31	Q8:	3	99
314	31	Q1:	2	278	26	274
315	13	Q0:	0	217
316	27	Q0:	0
317	20	Q1:	3	12
318	13	Q6:	2
319	17	Q6:	3	92	117
320	20	Q6:	0
321	39	Q8:	0	43
322	29	Q1:	0	29
323	40	Q7:	0
324	38	Q8:	1	158	99	124
325	12	Q4:	2
326	22	Q0:	3
327	39	Q1:	2	316	37	160	84
328	19	Q3:	2	322	3
329	28	Q0:	3
330	21	Q0:	1	224
331	12	Q3:	0
332	23	Q9:	1	231	71
333	28	Q6:	1	293
334	32	Q5:	0
335	9	Q7:	0
336	30	Q4:	0
337	17	Q7:	1	55
338	36	Q2:	3	76	290
339	11	Q2:	3
340	8	Q1:	0	169	168
341	20	Q9:	3
342	15	Q5:	0
343	40	Q7:	1
344	26	Q1:	1
345	14	Q8:	0	332
346	30	Q7:	0	325
347	27	Q4:	2	169
348	21	Q6:	3
349	22	Q1:	0
350	38	Q0:	3	17
351	37	Q6:	0	11	56	166
352	17	Q0:	1	41	250
353	35	Q7:	3	313
354	13	Q6:	2
355	9	Q1:	2
356	32	Q9:	3
357	11	Q4:	1
358	24	Q3:	0	217	288	5
359	13	Q9:	0
360	39	Q1:	3	342	79	126	240
361	21	Q3:	1
362	39	Q4:	0
363	38	Q6:	1
364	35	Q9:	2	73
365	25	Q6:	2	312	219
366	38	Q2:	2	67	283
367	36	Q5:	3	223	31
368	23	Q8:	0	29
369	25	Q6:	1	40
370	10	Q8:	1	92	89	40
371	36	Q9:	0	312
372	17	Q7:	2
373	40	Q2:	0
374	31	Q6:	1	8
375	38	Q4:	0
376	10	Q0:	0
377	19	Q4:	2
378	23	Q0:	1	310
379	29	Q9:	1
380	11	Q3:	0
381	16	Q7:	2	174
382	22	Q0:	3	33
383	30	Q8:	1	253
384	22	Q2:	0
385	34	Q3:	3
386	39	Q1:	1	195
387	35	Q4:	1	334
388	21	Q1:	2
389	33	Q3:	0
390	21	Q4:	3	2
391	38	Q8:	2	364	111
392	12	Q2:	1
393	16	Q8:	3	104
394	24	Q6:	3	186	288
395	38	Q1:	0	374
396	40	Q0:	0	194
397	29	Q6:	0	21
398	21	Q9:	2
399	10	Q9:	0	351
400	30	Q2:	3	106
401	9	Q0:	1	93
402	14	Q5:	1	257
403	38	Q4:	0	259	132
404	36	Q1:	0
405	16	Q1:	3	385
406	10	Q5:	0	93
407	25	Q6:	3	31	180
408	25	Q2:	3
409	39	Q5:	3	29
410	13	Q6:	3	323
411	34	Q5:	3
412	29	Q9:	1	209	54	42	90
413	13	Q6:	0	153	135
414	29	Q1:	3
415	17	Q0:	3	179
416	29	Q1:	2	34
417	19	Q1:	1	269
418	28	Q8:	2
419	18	Q7:	0
420	26	Q2:	3
421	36	Q9:	1
422	32	Q5:	0
423	27	Q3:	1	25
424	10	Q0:	0
425	10	Q0:	2
426	33	Q1:	1
427	10	Q8:	3
428	33	Q5:	0
429	19	Q9:	1	234
430	38	Q5:	1	130	317
431	25	Q9:	0	197	248	303
432	31	Q6:	2	212
433	17	Q6:	0	291
434	26	Q9:	1	108	315
435	36	Q1:	1	28
436	9	Q7:	2	117	356
437	15	Q6:	0	433
438	36	Q5:	0	79
439	37	Q0:	1
440	40	Q2:	0	314	76
441	16	Q6:	2
442	16	Q2:	0	94
443	34	Q6:	3	91
444	24	Q3:	2	227	96
445	21	Q1:	0	173
446	26	Q7:	0
447	27	Q9:	1	106
448	15	Q2:	3
449	20	Q7:	1
450	24	Q2:	3	144
451	18	Q0:	2	158	124
452	37	Q0:	1
453	27	Q6:	2	371
454	20	Q0:	2
455	20	Q4:	2	127
456	25	Q2:	2
457	15	Q9:	0	281
458	28	Q4:	1	446	151	96
459	27	Q1:	0
460	13	Q2:	1	143
461	23	Q5:	3
462	23	Q7:	2	386	15	234
463	9	Q5:	1	436
464	15	Q7:	1	379	303
465	40	Q5:	0	150
466	25	Q1:	1
467	28	Q8:	3
468	32	Q3:	0	64	40	165
469	34	Q7:	2
470	38	Q1:	0	298
471	37	Q2:	0	120	9
472	36	Q3:	1
473	16	Q9:	3	262
474	37	Q0:	3	472
475	19	Q3:	2	99	416	251
476	38	Q2:	1
477	36	Q4:	1
478	15	Q3:	1
479	15	Q0:	1
480	34	Q7:	2	339	374
481	19	Q9:	0	325	158	235	57
482	12	Q0:	1
483	39	Q0:	1
484	26	Q2:	1
485	36	Q1:	3	242
486	39	Q2:	2
487	20	Q9:	1	298	441
488	27	Q6:	3	388
489	39	Q8:	1	360
490	12	Q9:	0	385	439
491	36	Q6:	2	66
492	27	Q9:	2
493	12	Q1:	2
494	14	Q1:	1
495	24	Q5:	1	68	182
496	20	Q3:	1
497	10	Q8:	2	495
498	26	Q1:	0
499	36	Q8:	1	13	251
500	13	Q1:	3
501	11	Q3:	1	46
502	20	Q9:	0
503	9	Q5:	3	86
504	38	Q7:	3
505	28	Q9:	1
506	18	Q7:	3	325
507	9	Q5:	0	187	301
508	28	Q1:	2
509	38	Q6:	0	469
510	24	Q5:	1	300	483
511	14	Q4:	2	366
512	25	Q6:	2	11	40
513	18	Q7:	3
514	25	Q6:	2
515	11	Q1:	0
516	30	Q6:	0	57
517	37	Q3:	1	194	221
518	16	Q4:	3
519	37	Q5:	0	491	17	288
520	38	Q4:	3	458
521	14	Q6:	2
522	16	Q6:	3	267
523	25	Q5:	0	401
524	35	Q0:	1	411	121	377
525	33	Q3:	1	234	453
526	22	Q2:	2
527	40	Q9:	0
528	36	Q9:	0	527
529	9	Q8:	3	6	112	140
530	16	Q0:	1	74
531	24	Q7:	0
532	21	Q0:	3	368
533	10	Q9:	2
534	18	Q6:	3	529
535	38	Q9:	2	381	301	128
536	34	Q5:	2
537	19	Q1:	1
538	23	Q5:	0
539	25	Q8:	0
540	20	Q9:	1	351	383
541	30	Q0:	2	191
542	27	Q7:	0
543	36	Q8:	2	266
544	20	Q4:	3	169
545	23	Q9:	2
546	13	Q9:	1	416	238
547	37	Q3:	3
548	22	Q8:	3
549	35	Q3:	3
550	10	Q3:	0	96
551	39	Q0:	2
552	12	Q9:	1
553	25	Q6:	1
554	30	Q3:	1
555	28	Q6:	2	179
556	37	Q4:	3	441	176
557	26	Q0:	2	322
558	19	Q2:	3	478
559	32	Q9:	3
560	27	Q2:	1	429	418
561	29	Q8:	0
562	37	Q7:	0
563	28	Q0:	3	111
564	31	Q6:	2
565	19	Q8:	2
566	39	Q9:	1	285
567	14	Q1:	2
568	17	Q3:	0
569	39	Q1:	2	7
570	9	Q4:	0	271
571	37	Q3:	2	44	508	490	454
572	21	Q2:	0	64
573	22	Q2:	1	242	558
574	11	Q4:	1	371	184
575	15	Q2:	1	185	67
576	31	Q7:	2	171
577	32	Q4:	0
578	32	Q6:	3	238	232	324
579	11	Q9:	2
580	10	Q5:	3	172
581	36	Q0:	1	351	43
582	15	Q2:	1	519
583	39	Q7:	1	76
584	22	Q5:	1
585	28	Q2:	1	365	553
586	36	Q1:	3
587	15	Q4:	1	389
588	15	Q9:	2
589	33	Q1:	1	34
590	38	Q7:	0
591	22	Q6:	3
592	14	Q3:	1
593	31	Q2:	3	289
594	32	Q1:	3
595	25	Q7:	0
596	23	Q8:	2	38	594	206
597	22	Q6:	0	173	61
598	27	Q0:	1	124
599	36	Q3:	3	365	408	512	425	242
600	15	Q1:	0	245
601	11	Q3:	0	408
602	25	Q5:	3	220	521	356	166
603	21	Q3:	3	173	151
604	24	Q3:	3
605	16	Q5:	3	491
606	12	Q5:	2	346	377	487
607	10	Q8:	1
608	17	Q2:	2
609	9	Q0:	3
610	31	Q1:	0
611	9	Q7:	0	279	197
612	18	Q5:	0	58	347
613	20	Q3:	3
614	34	Q2:	0
615	35	Q5:	1	100	441	442
616	29	Q2:	0	447
617	27	Q0:	2	450	184	437
618	19	Q0:	3	484
619	13	Q3:	3	302	530
620	10	Q9:	1	223	56
621	32	Q7:	0
622	28	Q0:	3
623	37	Q3:	3	48
624	16	Q2:	3	422	101
625	10	Q9:	2	288	431
626	21	Q5:	3	518	36	133
627	13	Q5:	0	458	9
628	36	Q2:	0
629	40	Q3:	1	20
630	9	Q0:	1	526
631	39	Q9:	0	561
632	31	Q3:	2	614	596
633	35	Q3:	0
634	36	Q6:	2
635	19	Q1:	0
636	28	Q9:	1	124
637	39	Q4:	1	433
638	37	Q3:	0	616	212	141
639	11	Q9:	1	125
640	17	Q0:	1	586
641	11	Q3:	3
642	23	Q5:	1	497
643	11	Q8:	1	543	433	171
644	9	Q7:	3
645	23	Q9:	0
646	34	Q9:	2	554
647	15	Q3:	0
648	20	Q7:	0
649	36	Q5:	2	281	627	160
650	17	Q4:	2
651	15	Q1:	3	145	205	496
652	19	Q0:	0
653	38	Q1:	2	313	642
654	28	Q3:	2	338
655	34	Q2:	0	600	27
656	19	Q1:	1
657	10	Q7:	3	249	40
658	21	Q5:	3
659	31	Q4:	1	257	424
660	33	Q4:	0
661	25	Q9:	1	351	498	297
662	17	Q4:	2	74	290
663	29	Q9:	3
664	13	Q4:	2	83	167
665	38	Q1:	3	429	462
666	39	Q7:	0
667	14	Q8:	0	31
668	35	Q2:	0
669	22	Q3:	3	489
670	22	Q5:	2	264
671	24	Q8:	1	82
672	27	Q8:	3	472	360
673	14	Q7:	3	47	456	394
674	21	Q4:	1
675	29	Q7:	1	105
676	15	Q6:	2
677	31	Q3:	3	262
678	33	Q1:	0
679	38	Q6:	2	173	552
680	16	Q8:	2	547	346	18
681	15	Q9:	1	537
682	17	Q6:	2	175	308
683	15	Q9:	3	644
684	24	Q0:	1
685	13	Q5:	2	44	510	585
686	37	Q1:	3	332
687	32	Q4:	2	604
688	28	Q2:	0
689	11	Q5:	2
690	12	Q1:	3	173
691	19	Q0:	2	99	422
692	23	Q1:	0	573	649
693	15	Q3:	2	471
694	26	Q3:	3	651	514	380	559
695	37	Q5:	1	528	650	653
696	39	Q4:	0	678
697	31	Q0:	0
698	28	Q0:	0
699	10	Q0:	2	532	361	686
700	17	Q9:	2	226
701	34	Q9:	1	176
702	23	Q7:	1	419
703	21	Q4:	3	576
704	26	Q7:	2
705	35	Q6:	2
706	28	Q1:	1	61	500	619	148	120
707	34	Q1:	1	385	508	606	521
708	38	Q4:	2
709	14	Q0:	1
710	40	Q4:	1	98	135
711	34	Q4:	0	218
712	37	Q6:	3	602	636
713	37	Q2:	3	443
714	24	Q2:	3	264
715	33	Q9:	0	196	688	119
716	32	Q5:	3	426
717	11	Q5:	3	639	11
718	19	Q0:	1
719	29	Q3:	3
720	28	Q8:	2	70	438	326
721	24	Q3:	1	466
722	36	Q4:	0
723	23	Q7:	2	559	145
724	15	Q4:	3	394
725	9	Q4:	3	26
726	14	Q2:	1	276	695	535	77
727	22	Q4:	3	411	252	636	75	532	261
728	20	Q0:	2	286
729	27	Q0:	3	209	296
730	37	Q4:	0	214	95
731	21	Q9:	2	322	193
732	28	Q8:	1	332	334	162
733	19	Q2:	1	619
734	31	Q6:	1	509
735	14	Q8:	0	395
736	34	Q0:	0	42	616
737	29	Q4:	2	382
738	23	Q3:	3	728
739	34	Q6:	0	594	222
740	35	Q1:	2
741	29	Q1:	3
742	28	Q2:	0	678	457	683
743	32	Q6:	3	104	256
744	28	Q3:	3	422	471
745	21	Q3:	0
746	37	Q0:	2	25	35
747	36	Q5:	0	14	582	553
748	25	Q0:	2	451
749	17	Q9:	2	168	698
750	36	Q1:	3	547
751	18	Q5:	1	660	736
752	10	Q0:	2	19	253
753	23	Q3:	0
754	17	Q9:	0	425	724
755	40	Q8:	3
756	25	Q1:	2	639	216
757	12	Q8:	0	103	540
758	18	Q3:	3	549	162	450
759	34	Q0:	0	23	665	517	276
760	19	Q9:	1	429	9	579	261
761	31	Q0:	0	459	702	49
762	21	Q2:	3
763	35	Q9:	2	475
764	22	Q9:	0	601
765	18	Q2:	3	720
766	19	Q0:	2
767	15	Q1:	2	458	486
768	17	Q2:	0	206
769	26	Q3:	3	527
770	36	Q9:	0	37
771	20	Q0:	0
772	37	Q2:	1	221	159	585
773	10	Q1:	0	531
774	18	Q3:	3	159	17
775	35	Q9:	2	256
776	30	Q7:	1	32	308	9
777	10	Q8:	3	112
778	38	Q4:	0	71	189
779	10	Q9:	0	92
780	12	Q9:	0	241
781	40	Q8:	2	670	719	585
782	16	Q0:	1	611	281	5	56	522
783	13	Q0:	1	9
784	14	Q8:	2	762	168
785	27	Q5:	1	5
786	40	Q9:	3	359	617
787	38	Q0:	1	785
788	13	Q6:	2	634
789	23	Q1:	2
790	19	Q6:	2	380
791	34	Q8:	2	248
792	40	Q5:	3	611
793	37	Q4:	3	548	354
794	40	Q4:	3	543	717	580
795	22	Q6:	2	294	125	785
796	17	Q5:	1	652
797	11	Q4:	0	637	5	178	196
798	29	Q7:	3	399
799	33	Q9:	2
800	31	Q7:	1	281
801	22	Q9:	2	785	634	491
802	10	Q3:	0	146
803	26	Q6:	2	53
804	10	Q9:	0	7
805	19	Q3:	3	319	456	583
806	40	Q1:	3
807	39	Q2:	3	457	588	51	458
808	32	Q6:	1	475	269
809	13	Q6:	3	176	201
810	13	Q6:	1	209	712	664
811	30	Q1:	1	311	588
812	33	Q8:	3	517	37
813	29	Q3:	0	6	622	493
814	38	Q4:	3	28
815	21	Q8:	0
816	18	Q7:	3	720
817	20	Q8:	0	225	554
818	22	Q8:	3	331	93	596	767	16
819	20	Q7:	2
820	37	Q8:	3
821	30	Q2:	3	354
822	38	Q8:	2	785
823	12	Q8:	3
824	13	Q4:	3	569	22
825	31	Q8:	3	51
826	33	Q7:	0	607	442
827	38	Q9:	2	566
828	26	Q1:	2	789	363	648
829	32	Q1:	1	797	515
830	14	Q5:	0
831	19	Q8:	2	651
832	12	Q3:	1	523	757
833	28	Q5:	0	817
834	31	Q5:	3	612
835	30	Q4:	1	794
836	28	Q1:	2	260	596
837	20	Q1:	3	490	803	348	47
838	36	Q4:	2
839	27	Q1:	2	349	579
840	22	Q5:	0	438
841	11	Q0:	3	620
842	24	Q7:	2	166
843	24	Q8:	1	578	2	212	703	209
844	32	Q9:	1	277	786	117
845	19	Q1:	3
846	39	Q1:	3	720
847	19	Q2:	0	345
848	24	Q7:	2	206	442	354
849	40	Q6:	1	390	4	164
850	9	Q5:	0	401	843
851	19	Q0:	2	43	154
852	11	Q5:	1	132	453
853	14	Q5:	3
854	15	Q1:	2	566	540
855	13	Q5:	2	199
856	12	Q2:	3	638	716	142	536
857	36	Q3:	1
858	17	Q1:	3	281	94	556
859	31	Q9:	3	643
860	10	Q6:	2	115	45	735
861	27	Q0:	3	748	629
862	31	Q6:	3	41
863	38	Q4:	0
864	33	Q5:	2	274
865	39	Q0:	3	247
866	12	Q3:	3	770
867	23	Q2:	0
868	24	Q6:	1	66
869	13	Q8:	3	661
870	32	Q7:	3	234	352
871	28	Q7:	1	757	664	597	821	218
872	21	Q7:	3	272	312	164	465	233
873	11	Q3:	2	691	650	401
874	22	Q0:	3	377	397
875	18	Q3:	0	637
876	36	Q1:	1	817
877	27	Q2:	3	357	147	324
878	25	Q8:	1	855
879	37	Q8:	0	242	426
880	23	Q6:	3	529
881	25	Q3:	2	681
882	25	Q8:	3	550
883	23	Q7:	2	866
884	37	Q2:	2
885	26	Q1:	2	776	357
886	9	Q4:	1	762	852	873
887	16	Q2:	0	423	457	390	565
888	28	Q4:	1	580
889	37	Q8:	3	150	508	408
890	37	Q7:	2	330	415	788
891	21	Q1:	3
892	19	Q2:	0
893	15	Q9:	3	560	393
894	37	Q2:	2	108
895	35	Q6:	3	754	164	430	391	857
896	17	Q0:	0	23	714	406
897	8	Q3:	3	604
898	29	Q8:	1	704
899	30	Q3:	1	446
900	36	Q1:	2	463
901	23	Q9:	2	602	558	88
902	25	Q8:	3	735
903	37	Q0:	3	666	854	589
904	22	Q9:	0	426
905	34	Q9:	2
906	29	Q0:	0	790
907	13	Q6:	3	299
908	15	Q0:	0	461
909	25	Q2:	0	826
910	24	Q1:	3	310	785
911	24	Q0:	1
912	39	Q4:	3	797	38	618
913	14	Q6:	1	833	879
914	30	Q6:	0	728	903
915	18	Q1:	3	244
916	16	Q4:	1	119
917	11	Q3:	1	278	847	451
918	33	Q9:	1
919	9	Q9:	0	466	293
920	19	Q5:	0	212	815	725
921	14	Q8:	3	651	336
922	25	Q5:	1	315	172	655
923	15	Q9:	3	816	29	454
924	30	Q2:	0	322
925	25	Q3:	2	151	722	402
926	39	Q0:	1	463
927	27	Q1:	0	605
928	37	Q6:	3	607	501
929	26	Q7:	2	16	419
930	28	Q7:	2	688	815	40
931	32	Q1:	2	454
932	12	Q3:	3	848	33	200	29
933	23	Q5:	2	725
934	9	Q5:	2	295
935	23	Q5:	0	453	7
936	36	Q9:	3	454	841
937	24	Q8:	1	45	317
938	34	Q6:	3	561	58	546
939	26	Q3:	2	910
940	40	Q8:	0	35	409	463
941	11	Q7:	0	841
942	12	Q2:	0	807
943	11	Q5:	1	379	601
944	16	Q9:	2	487
945	39	Q3:	0	426
946	11	Q0:	0	816
947	20	Q2:	2	886
948	33	Q2:	0	39	723	66
949	35	Q2:	3	477	153
950	14	Q3:	1	262	122	847	659
951	40	Q6:	0
952	14	Q8:	2	29	316	148
953	35	Q9:	0	565	683
954	25	Q4:	1	413	97
955	20	Q8:	0	443	311	822	56	550
956	12	Q1:	3
957	20	Q3:	2
958	30	Q4:	0
959	13	Q0:	0	616	569
960	14	Q1:	1	440
961	17	Q0:	3	756	619	827	851	306
962	14	Q8:	1	329
963	32	Q8:	3	37	349
964	40	Q3:	2
965	32	Q8:	3	67	8	519	672
966	39	Q8:	3	217	533	696
967	26	Q5:	2	819
968	17	Q4:	3	17	458
969	11	Q6:	0	86	252
970	26	Q0:	1	726
971	10	Q0:	2	635	507	573	217	954
972	38	Q1:	2	238	306
973	27	Q1:	1
974	22	Q9:	0	827
975	24	Q0:	1	70	356	675
976	29	Q7:	2	91	501	871	710
977	23	Q7:	0	630	287	92
978	16	Q6:	1	634	728
979	14	Q2:	0	206	300
980	13	Q8:	0	593	365	821
981	26	Q9:	2	662
982	26	Q6:	1
983	23	Q4:	0	260	711	683
984	21	Q5:	3	352	678	963	310
985	20	Q5:	1	951	134	444
986	9	Q0:	2	192	84	637
987	29	Q4:	3	891	693
988	35	Q6:	0
989	10	Q6:	2	931
990	23	Q0:	0	779	146	566
991	20	Q6:	1	732
992	37	Q1:	0	118
993	29	Q2:	2	23	157
994	27	Q2:	3	790	468	189	11
995	31	Q2:	0	347	716	896	695
996	37	Q9:	0	104	683
997	27	Q0:	2	298	946	558	248
998	19	Q0:	1	392	774
999	20	Q7:	1
1000	21	Q6:	2	378
========================================================== 